\* Problem: Unknown *\

Maximize
 obj: + xp_0_0 + xp_1_0 + xp_1_1 + xp_2_0 + xp_3_0 + xp_3_1 + xp_4_0
 + xp_5_0 + xp_6_0 + xp_7_0 + xp_8_0 + xp_9_0 + xp_9_1 + xp_10_0
 + xp_11_0 + xp_11_1 + xp_12_0 + xp_13_0 + xp_13_1 + xp_14_0 + xp_14_1
 + xp_15_0 + xp_16_0 + xp_17_0 + xp_17_1 + xp_18_0 + xp_18_1 + xp_19_0
 + xp_19_1 + xp_20_0 + xp_21_0 + xp_22_0 + xp_22_1 + xp_23_0 + xp_24_0
 + xp_24_1 + xp_25_0 + xp_26_0 + xp_27_0 + xp_28_0 + xp_28_1 + xp_29_0
 + xp_30_0 + xp_30_1 + xp_31_0 + xp_32_0 + xp_32_1 + xp_33_0 + xp_34_0
 + xp_34_1 + xp_35_0 + xp_36_0 + xp_37_0 + xp_38_0 + xp_39_0 + xp_40_0
 + xp_40_1 + xp_40_2 + xp_41_0 + xp_42_0 + xp_42_1 + xp_43_0 + xp_44_0
 + xp_45_0 + xp_46_0 + xp_47_0 + xp_48_0 + xp_48_1 + xp_49_0 + xp_50_0
 + xp_50_1 + xp_51_0 + xp_52_0 + xp_53_0 + xp_54_0 + xp_55_0 + xp_56_0
 + xp_57_0 + xp_57_1 + xp_58_0 + xp_58_1 + xp_59_0 + xp_60_0 + xp_60_1
 + xp_61_0 + xp_61_1 + xp_62_0 + xp_63_0 + xp_63_1 + xp_64_0 + xp_65_0
 + xp_65_1 + xp_66_0 + xp_67_0 + xp_67_1 + xp_68_0 + xp_68_1 + xp_69_0
 + xp_70_0 + xp_71_0 + xp_72_0 + xp_73_0 + xp_74_0 + xp_75_0 + xp_76_0
 + xp_77_0 + xp_77_1 + xp_78_0 + xp_78_1 + xp_78_2 + xp_78_3 + xp_79_0
 + xp_79_1 + xp_80_0 + xp_80_1 + xp_81_0 + xp_81_1 + xp_82_0 + xp_83_0
 + xp_84_0 + xp_85_0 + xp_85_1 + xp_86_0 + xp_86_1 + xp_86_2 + xp_87_0
 + xp_88_0 + xp_89_0 + xp_90_0 + xp_90_1 + xp_90_2 + xp_91_0 + xp_91_1
 + xp_92_0 + xp_93_0 + xp_94_0 + xp_95_0 + xp_96_0 + xp_97_0 + xp_98_0
 + xp_98_1 + xp_99_0 + xp_100_0 + xp_101_0 + xp_102_0 + xp_103_0
 + xp_104_0 + xp_105_0 + xp_105_1 + xp_106_0 + xp_107_0 + xp_108_0
 + xp_108_1 + xp_108_2 + xp_109_0 + xp_109_1 + xp_110_0 + xp_111_0
 + xp_111_1 + xp_112_0 + xp_112_1 + xp_112_2 + xp_113_0 + xp_114_0
 + xp_115_0 + xp_115_1 + xp_116_0 + xp_116_1 + xp_117_0 + xp_118_0
 + xp_119_0 + xp_120_0 + xp_120_1 + xp_120_2 + xp_121_0 + xp_122_0
 + xp_123_0 + xp_124_0 + xp_125_0 + xp_125_1 + xp_126_0 + xp_126_1
 + xp_126_2 + xp_126_3 + xp_127_0 + xp_127_1 + xp_128_0 + xp_128_1
 + xp_129_0 + xp_129_1 + xp_130_0 + xp_131_0 + xp_131_1 + xp_131_2

Subject To
 r_1: + xp_128_1 + xp_122_0 + xp_121_0 + xp_108_2 + xp_107_0 + xp_78_3
 + xp_67_1 + xp_57_1 + xp_40_2 + xp_40_1 + xp_25_0 + xp_22_1 + xp_18_0
 + xp_16_0 + xp_13_1 + xp_4_0 <= 38281.3816343724
 r_2: + xp_131_2 + xp_131_1 + xp_127_1 + xp_126_3 + xp_126_1 + xp_120_2
 + xp_120_0 + xp_93_0 + xp_90_1 + xp_85_1 + xp_85_0 + xp_77_1 + xp_75_0
 + xp_71_0 + xp_66_0 + xp_65_1 + xp_65_0 + xp_61_1 + xp_55_0 + xp_52_0
 + xp_48_1 + xp_48_0 + xp_42_1 + xp_32_1 + xp_32_0 + xp_28_1 + xp_28_0
 + xp_24_0 + xp_19_1 + xp_19_0 + xp_1_1 <= 35361.6284105673
 r_3: + xp_126_3 + xp_114_0 + xp_105_1 + xp_95_0 + xp_76_0 + xp_58_1
 + xp_48_1 + xp_34_0 + xp_32_1 <= 40000
 r_4: + xp_117_0 + xp_112_2 + xp_91_1 + xp_91_0 + xp_84_0 + xp_79_1
 + xp_79_0 + xp_46_0 + xp_43_0 + xp_40_2 + xp_40_1 + xp_40_0 + xp_34_1
 <= 37188.1461061337
 r_5: + xp_130_0 + xp_112_2 + xp_99_0 + xp_86_0 + xp_7_0 + xp_2_0
 <= 40000
 r_6: + xp_126_3 + xp_126_2 + xp_119_0 + xp_114_0 + xp_95_0 + xp_83_0
 + xp_81_0 + xp_70_0 + xp_68_1 + xp_58_1 + xp_53_0 + xp_48_1 + xp_45_0
 + xp_34_0 + xp_32_1 + xp_30_1 + xp_18_0 <= 39820.1058201058
 r_7: + xp_112_1 + xp_111_1 + xp_104_0 + xp_88_0 + xp_82_0 + xp_81_1
 + xp_78_2 + xp_50_1 + xp_44_0 + xp_27_0 + xp_18_1 + xp_3_1
 <= 37188.1461061337
 r_8: + xp_131_2 + xp_131_1 + xp_127_1 + xp_126_3 + xp_126_1 + xp_120_2
 + xp_120_0 + xp_118_0 + xp_103_0 + xp_90_1 + xp_77_1 + xp_71_0
 + xp_61_1 + xp_55_0 + xp_42_1 + xp_32_1 + xp_32_0 + xp_24_0 + xp_1_1
 <= 38281.3816343724
 r_9: + xp_131_0 + xp_127_0 + xp_122_0 + xp_120_1 + xp_108_2 + xp_78_3
 + xp_77_0 + xp_67_1 + xp_57_1 + xp_42_0 + xp_33_0 + xp_24_1 <= 40000
 r_10: + xp_112_2 + xp_112_1 + xp_111_1 + xp_106_0 + xp_99_0 + xp_98_0
 + xp_88_0 + xp_86_0 + xp_85_0 + xp_78_2 + xp_50_1 + xp_26_0 + xp_24_0
 + xp_8_0 + xp_7_0 + xp_3_1 + xp_2_0 <= 39820.1058201058
 r_11: + xp_119_0 + xp_112_0 + xp_111_0 + xp_95_0 + xp_81_0 + xp_78_3
 + xp_78_1 + xp_78_0 + xp_59_0 + xp_53_0 + xp_50_0 + xp_49_0 + xp_45_0
 + xp_34_0 + xp_18_0 + xp_4_0 + xp_3_0 <= 36974.2913645353
 r_12: + xp_129_0 + xp_128_0 + xp_123_0 + xp_117_0 + xp_112_2 + xp_112_1
 + xp_111_1 + xp_108_1 + xp_101_0 + xp_91_1 + xp_82_0 + xp_81_1
 + xp_80_1 + xp_79_1 + xp_78_2 + xp_78_0 + xp_73_0 + xp_63_1 + xp_60_0
 + xp_50_1 + xp_46_0 + xp_44_0 + xp_40_2 + xp_40_0 + xp_18_1 + xp_17_1
 + xp_15_0 + xp_14_1 + xp_13_0 + xp_9_0 <= 36378.8140472078
 r_13: + xp_129_1 + xp_128_1 + xp_120_2 + xp_120_1 + xp_109_1 + xp_100_0
 + xp_91_0 + xp_90_0 + xp_80_0 + xp_79_0 + xp_68_0 + xp_63_0 + xp_60_1
 + xp_40_1 + xp_34_1 + xp_31_0 + xp_30_0 + xp_17_0 + xp_13_1 + xp_9_1
 <= 36974.2913645353
 r_14: + xp_131_2 + xp_131_1 + xp_131_0 + xp_126_3 + xp_126_2 + xp_125_1
 + xp_125_0 + xp_124_0 + xp_115_1 + xp_115_0 + xp_98_1 + xp_94_0
 + xp_86_2 + xp_86_1 + xp_85_1 + xp_77_1 + xp_77_0 + xp_68_1 + xp_65_1
 + xp_65_0 + xp_58_1 + xp_56_0 + xp_51_0 + xp_48_1 + xp_41_0 + xp_38_0
 + xp_35_0 + xp_32_1 + xp_30_1 + xp_24_1 + xp_20_0 + xp_19_1 + xp_19_0
 + xp_12_0 + xp_0_0 <= 37188.1461061337
 r_15: + xp_131_2 + xp_131_0 + xp_126_3 + xp_126_2 + xp_125_0 + xp_124_0
 + xp_120_2 + xp_120_1 + xp_116_0 + xp_115_0 + xp_109_1 + xp_98_1
 + xp_94_0 + xp_90_0 + xp_89_0 + xp_86_1 + xp_85_1 + xp_77_1 + xp_77_0
 + xp_68_1 + xp_68_0 + xp_65_0 + xp_58_1 + xp_51_0 + xp_48_1 + xp_42_1
 + xp_42_0 + xp_38_0 + xp_36_0 + xp_32_1 + xp_28_1 + xp_24_1 + xp_19_1
 + xp_12_0 + xp_11_0 + xp_0_0 <= 36378.8140472078
 r_16: + xp_128_0 + xp_123_0 + xp_108_1 + xp_108_0 + xp_78_2 + xp_78_1
 + xp_78_0 + xp_73_0 + xp_67_0 + xp_57_0 + xp_46_0 + xp_44_0 + xp_40_0
 + xp_22_0 + xp_18_1 + xp_13_0 + xp_6_0 <= 36378.8140472078
 r_17: + xp_129_0 + xp_126_0 + xp_112_2 + xp_112_1 + xp_111_1 + xp_109_0
 + xp_97_0 + xp_91_1 + xp_90_2 + xp_81_1 + xp_80_1 + xp_79_1 + xp_63_1
 + xp_62_0 + xp_61_0 + xp_60_0 + xp_47_0 + xp_40_2 + xp_22_1 + xp_17_1
 + xp_9_0 + xp_1_0 <= 35361.6284105673
 r_18: + xp_126_1 + xp_126_0 + xp_106_0 + xp_99_0 + xp_98_0 + xp_92_0
 + xp_86_0 + xp_85_0 + xp_68_0 + xp_58_0 + xp_48_0 + xp_32_0 + xp_30_0
 + xp_26_0 + xp_24_0 + xp_5_0 + xp_2_0 <= 36974.2913645353
 r_19: + xp_131_1 + xp_125_1 + xp_116_1 + xp_115_1 + xp_110_0 + xp_108_1
 + xp_86_2 + xp_78_0 + xp_65_1 + xp_56_0 + xp_28_0 + xp_19_0 + xp_14_1
 + xp_11_1 + xp_3_0 <= 36974.2913645353
 r_20: + xp_129_1 + xp_128_1 + xp_119_0 + xp_112_0 + xp_111_0 + xp_108_2
 + xp_108_0 + xp_107_0 + xp_95_0 + xp_91_0 + xp_81_0 + xp_80_0 + xp_79_0
 + xp_78_3 + xp_78_1 + xp_69_0 + xp_64_0 + xp_63_0 + xp_60_1 + xp_50_0
 + xp_49_0 + xp_45_0 + xp_40_1 + xp_18_0 + xp_17_0 + xp_14_0 + xp_13_1
 + xp_10_0 + xp_9_1 + xp_4_0 <= 35361.6284105673
 r_21: + xp_126_3 + xp_113_0 + xp_105_1 + xp_86_2 + xp_86_1 + xp_77_1
 + xp_77_0 + xp_65_1 + xp_65_0 + xp_58_1 + xp_48_1 + xp_38_0 + xp_32_1
 + xp_20_0 + xp_0_0 <= 37188.1461061337
 r_22: + xp_126_2 + xp_124_0 + xp_105_0 + xp_98_1 + xp_94_0 + xp_85_1
 + xp_83_0 + xp_68_1 + xp_41_0 + xp_30_1 + xp_24_1 <= 37188.1461061337
 r_23: + xp_128_1 + xp_128_0 + xp_117_0 + xp_112_2 + xp_112_1 + xp_111_1
 + xp_104_0 + xp_100_0 + xp_91_1 + xp_91_0 + xp_84_0 + xp_82_0 + xp_81_1
 + xp_80_1 + xp_80_0 + xp_79_1 + xp_79_0 + xp_78_2 + xp_73_0 + xp_60_1
 + xp_60_0 + xp_50_1 + xp_46_0 + xp_44_0 + xp_40_2 + xp_40_1 + xp_40_0
 + xp_34_1 + xp_21_0 + xp_18_1 + xp_15_0 + xp_9_1 + xp_9_0 + xp_3_1
 <= 37188.1461061337
 r_24: + xp_128_0 + xp_126_3 + xp_126_1 + xp_103_0 + xp_90_1 + xp_61_1
 + xp_40_0 + xp_39_0 + xp_22_0 + xp_18_1 + xp_13_0 + xp_1_1 <= 40000
 r_25: + xp_131_0 + xp_127_0 + xp_126_2 + xp_126_0 + xp_120_1 + xp_94_0
 + xp_90_2 + xp_90_0 + xp_89_0 + xp_77_0 + xp_74_0 + xp_61_0 + xp_42_0
 + xp_38_0 + xp_24_1 + xp_12_0 + xp_1_0 <= 36378.8140472078
 r_26: + xp_128_1 + xp_121_0 + xp_112_2 + xp_112_1 + xp_112_0 + xp_108_2
 + xp_107_0 + xp_81_1 + xp_81_0 + xp_79_1 + xp_79_0 + xp_78_3 + xp_67_1
 + xp_64_0 + xp_60_1 + xp_60_0 + xp_57_1 + xp_47_0 + xp_40_2 + xp_40_1
 + xp_37_0 + xp_29_0 + xp_25_0 + xp_22_1 + xp_18_0 + xp_17_1 + xp_17_0
 + xp_13_1 + xp_4_0 <= 35361.6284105673
 r_27: + xp_131_2 + xp_127_1 + xp_126_3 + xp_125_0 + xp_120_2 + xp_116_0
 + xp_115_0 + xp_108_0 + xp_98_1 + xp_86_1 + xp_85_1 + xp_78_1 + xp_77_1
 + xp_72_0 + xp_67_0 + xp_65_0 + xp_58_1 + xp_57_0 + xp_52_0 + xp_50_0
 + xp_48_1 + xp_42_1 + xp_32_1 + xp_28_1 + xp_23_0 + xp_19_1 + xp_14_0
 + xp_11_0 <= 35361.6284105673
 r_28: + xp_131_1 + xp_126_1 + xp_126_0 + xp_125_1 + xp_120_0 + xp_116_1
 + xp_115_1 + xp_109_0 + xp_99_0 + xp_98_0 + xp_96_0 + xp_92_0 + xp_90_2
 + xp_90_1 + xp_86_2 + xp_86_0 + xp_85_0 + xp_75_0 + xp_65_1 + xp_58_0
 + xp_54_0 + xp_48_0 + xp_32_0 + xp_28_0 + xp_26_0 + xp_24_0 + xp_19_0
 + xp_11_1 <= 35361.6284105673
 r_29: + xp_129_1 + xp_129_0 + xp_95_0 + xp_93_0 + xp_87_0 + xp_71_0
 + xp_62_0 + xp_49_0 + xp_45_0 + xp_10_0 + xp_9_1 + xp_9_0 + xp_1_1
 + xp_1_0 <= 35361.6284105673
 r_30: + xp_125_1 + xp_125_0 + xp_121_0 + xp_102_0 + xp_99_0 + xp_96_0
 + xp_92_0 + xp_57_1 + xp_57_0 + xp_37_0 + xp_26_0 + xp_23_0 + xp_11_1
 + xp_11_0 <= 35361.6284105673

Bounds
 0 <= xp_0_0 <= 234.928706233096
 0 <= xp_1_0 <= 159.052640148733
 0 <= xp_1_1 <= 22.7218057355334
 0 <= xp_2_0 <= 114.511338652724
 0 <= xp_3_0 <= 158.822961245992
 0 <= xp_3_1 <= 22.6889944637131
 0 <= xp_4_0 <= 785.436224833498
 0 <= xp_5_0 <= 1078.63774981938
 0 <= xp_6_0 <= 1784.08009395508
 0 <= xp_7_0 <= 635.488712614888
 0 <= xp_8_0 <= 1503.14998462997
 0 <= xp_9_0 <= 53.8761083288747
 0 <= xp_9_1 <= 53.8761083288747
 0 <= xp_10_0 <= 54.5979563089206
 0 <= xp_11_0 <= 31.0066518701502
 0 <= xp_11_1 <= 10.3355506233834
 0 <= xp_12_0 <= 2058.11983619793
 0 <= xp_13_0 <= 219.515611295526
 0 <= xp_13_1 <= 31.359373042218
 0 <= xp_14_0 <= 109.491214064224
 0 <= xp_14_1 <= 109.491214064224
 0 <= xp_15_0 <= 504.899850770234
 0 <= xp_16_0 <= 2629.42970113238
 0 <= xp_17_0 <= 147.880402093933
 0 <= xp_17_1 <= 147.880402093933
 0 <= xp_18_0 <= 178.722997604982
 0 <= xp_18_1 <= 178.722997604982
 0 <= xp_19_0 <= 527.014647977093
 0 <= xp_19_1 <= 527.014647977093
 0 <= xp_20_0 <= 127.70146992447
 0 <= xp_21_0 <= 273.317894262805
 0 <= xp_22_0 <= 613.40672667985
 0 <= xp_22_1 <= 613.40672667985
 0 <= xp_23_0 <= 51.7761869323778
 0 <= xp_24_0 <= 169.601464038949
 0 <= xp_24_1 <= 169.601464038949
 0 <= xp_25_0 <= 576.362800794771
 0 <= xp_26_0 <= 15.2900526682434
 0 <= xp_27_0 <= 336.512403788635
 0 <= xp_28_0 <= 332.378183539282
 0 <= xp_28_1 <= 332.378183539282
 0 <= xp_29_0 <= 2437.87749624567
 0 <= xp_30_0 <= 159.799096582644
 0 <= xp_30_1 <= 22.8284423689492
 0 <= xp_31_0 <= 189.846018752052
 0 <= xp_32_0 <= 1961.85976749523
 0 <= xp_32_1 <= 280.265681070747
 0 <= xp_33_0 <= 8027.40889591506
 0 <= xp_34_0 <= 318.023252117916
 0 <= xp_34_1 <= 190.81395127075
 0 <= xp_35_0 <= 259.996517903778
 0 <= xp_36_0 <= 317.678733763803
 0 <= xp_37_0 <= 363.417646681252
 0 <= xp_38_0 <= 333.493766781171
 0 <= xp_39_0 <= 1567.19758722313
 0 <= xp_40_0 <= 528.630603114241
 0 <= xp_40_1 <= 211.452241245696
 0 <= xp_40_2 <= 105.726120622848
 0 <= xp_41_0 <= 79.6001454359623
 0 <= xp_42_0 <= 395.851588875584
 0 <= xp_42_1 <= 56.5502269822263
 0 <= xp_43_0 <= 490.134778451115
 0 <= xp_44_0 <= 456.798526281726
 0 <= xp_45_0 <= 42.3921631917821
 0 <= xp_46_0 <= 1599.28701106335
 0 <= xp_47_0 <= 875.535977251945
 0 <= xp_48_0 <= 2533.30087751696
 0 <= xp_48_1 <= 361.900125359565
 0 <= xp_49_0 <= 87.737340847388
 0 <= xp_50_0 <= 488.31375286509
 0 <= xp_50_1 <= 292.988251719054
 0 <= xp_51_0 <= 706.820417552143
 0 <= xp_52_0 <= 659.834676305524
 0 <= xp_53_0 <= 189.189793315647
 0 <= xp_54_0 <= 3679.25915429357
 0 <= xp_55_0 <= 1180.61518263677
 0 <= xp_56_0 <= 95.4151784533299
 0 <= xp_57_0 <= 179.608901944129
 0 <= xp_57_1 <= 25.658414563447
 0 <= xp_58_0 <= 3396.75410392109
 0 <= xp_58_1 <= 1132.2513679737
 0 <= xp_59_0 <= 10603.3562239804
 0 <= xp_60_0 <= 253.220990272893
 0 <= xp_60_1 <= 422.034983788156
 0 <= xp_61_0 <= 1506.73461607633
 0 <= xp_61_1 <= 904.0407696458
 0 <= xp_62_0 <= 130.720106931935
 0 <= xp_63_0 <= 114.896871096612
 0 <= xp_63_1 <= 16.4138387280874
 0 <= xp_64_0 <= 990.572296253793
 0 <= xp_65_0 <= 455.338424685724
 0 <= xp_65_1 <= 65.0483463836749
 0 <= xp_66_0 <= 1673.57173046442
 0 <= xp_67_0 <= 251.908539400083
 0 <= xp_67_1 <= 151.14512364005
 0 <= xp_68_0 <= 733.856905532042
 0 <= xp_68_1 <= 733.856905532042
 0 <= xp_69_0 <= 1712.02654103777
 0 <= xp_70_0 <= 629.254570969038
 0 <= xp_71_0 <= 70.6098569572098
 0 <= xp_72_0 <= 596.771411866976
 0 <= xp_73_0 <= 919.5030814911
 0 <= xp_74_0 <= 949.623829022103
 0 <= xp_75_0 <= 1757.30609614974
 0 <= xp_76_0 <= 1715.57015839436
 0 <= xp_77_0 <= 498.747737303935
 0 <= xp_77_1 <= 71.2496767577049
 0 <= xp_78_0 <= 3485.94334354652
 0 <= xp_78_1 <= 3485.94334354652
 0 <= xp_78_2 <= 13943.7733741861
 0 <= xp_78_3 <= 6971.88668709305
 0 <= xp_79_0 <= 663.525944385304
 0 <= xp_79_1 <= 398.115566631183
 0 <= xp_80_0 <= 140.432243390733
 0 <= xp_80_1 <= 84.2593460344399
 0 <= xp_81_0 <= 227.496953165806
 0 <= xp_81_1 <= 32.4995647379722
 0 <= xp_82_0 <= 219.048050672088
 0 <= xp_83_0 <= 502.143703937332
 0 <= xp_84_0 <= 887.019922389037
 0 <= xp_85_0 <= 305.489346282575
 0 <= xp_85_1 <= 101.829782094192
 0 <= xp_86_0 <= 106.800689774962
 0 <= xp_86_1 <= 42.7202759099847
 0 <= xp_86_2 <= 21.3601379549924
 0 <= xp_87_0 <= 140.825978652576
 0 <= xp_88_0 <= 423.85600937418
 0 <= xp_89_0 <= 2213.71088716962
 0 <= xp_90_0 <= 13521.2380185027
 0 <= xp_90_1 <= 5408.49520740107
 0 <= xp_90_2 <= 2704.24760370054
 0 <= xp_91_0 <= 1356.38516577793
 0 <= xp_91_1 <= 1356.38516577793
 0 <= xp_92_0 <= 66.672504338778
 0 <= xp_93_0 <= 130.06388149553
 0 <= xp_94_0 <= 236.372402193187
 0 <= xp_95_0 <= 61.1602106729735
 0 <= xp_96_0 <= 115.101941545489
 0 <= xp_97_0 <= 526.030309822485
 0 <= xp_98_0 <= 124.830483640197
 0 <= xp_98_1 <= 17.8329262343139
 0 <= xp_99_0 <= 16.3400133664919
 0 <= xp_100_0 <= 501.94683630641
 0 <= xp_101_0 <= 249.365665834012
 0 <= xp_102_0 <= 74.8096997502037
 0 <= xp_103_0 <= 1436.87121555303
 0 <= xp_104_0 <= 131.638822542902
 0 <= xp_105_0 <= 1085.23281545526
 0 <= xp_105_1 <= 361.744271818419
 0 <= xp_106_0 <= 41.3422024935336
 0 <= xp_107_0 <= 448.858198501222
 0 <= xp_108_0 <= 211.845976507539
 0 <= xp_108_1 <= 317.768964761309
 0 <= xp_108_2 <= 317.768964761309
 0 <= xp_109_0 <= 602.989147876916
 0 <= xp_109_1 <= 361.793488726149
 0 <= xp_110_0 <= 132.951273415713
 0 <= xp_111_0 <= 2554.25907739215
 0 <= xp_111_1 <= 364.894153913164
 0 <= xp_112_0 <= 3504.09617968109
 0 <= xp_112_1 <= 584.016029946848
 0 <= xp_112_2 <= 584.016029946848
 0 <= xp_113_0 <= 424.577857354226
 0 <= xp_114_0 <= 2393.12292148283
 0 <= xp_115_0 <= 137.807341645112
 0 <= xp_115_1 <= 82.6844049870672
 0 <= xp_116_0 <= 99.6232240642789
 0 <= xp_116_1 <= 59.7739344385673
 0 <= xp_117_0 <= 1939.47427729585
 0 <= xp_118_0 <= 3148.56964387261
 0 <= xp_119_0 <= 62.6695291767057
 0 <= xp_120_0 <= 1624.05952128764
 0 <= xp_120_1 <= 270.676586881274
 0 <= xp_120_2 <= 270.676586881274
 0 <= xp_121_0 <= 75.4003026429684
 0 <= xp_122_0 <= 2270.3431423314
 0 <= xp_123_0 <= 512.840178550738
 0 <= xp_124_0 <= 137.413606383269
 0 <= xp_125_0 <= 13.6166778054099
 0 <= xp_125_1 <= 13.6166778054099
 0 <= xp_126_0 <= 3166.21390529395
 0 <= xp_126_1 <= 9498.64171588186
 0 <= xp_126_2 <= 9498.64171588186
 0 <= xp_126_3 <= 3166.21390529395
 0 <= xp_127_0 <= 431.779931518774
 0 <= xp_127_1 <= 143.926643839591
 0 <= xp_128_0 <= 253.344032542219
 0 <= xp_128_1 <= 152.006419525332
 0 <= xp_129_0 <= 18.3332981295729
 0 <= xp_129_1 <= 30.5554968826216
 0 <= xp_130_0 <= 402.856795409211
 0 <= xp_131_0 <= 287.352915783924
 0 <= xp_131_1 <= 287.352915783924
 0 <= xp_131_2 <= 191.568610522616

End
